outputs/case_134.model.txt
unauthorized_business_suspension_or_termination = False
conflict_of_interest_employment_or_registration = False
convicted_of_embezzlement_fraud_breach_of_trust_or_forgery = False
employ_unqualified_insurance_recruiter = False
intentional_concealment_of_contract_info = False
improper_inducement_of_policy_surrender_or_transfer_or_loan = False
improper_transfer_of_application_documents = False
business_outside_license_scope = False
misappropriation_of_insurance_funds = False
unauthorized_delegation_or_use_of_others_name = False
spread_false_information_or_disrupt_financial_order = False
failure_to_report_to_broker_association = False
license_used_by_others_without_execution = False
false_reported_on_license_application = False
failure_to_appoint_replacement_broker = False
exaggerated_or_false_promotion = False
improper_fee_or_commission_collection = False
unauthorized_use_of_insurance_advertisement = False
license_not_canceled_within_deadline = False
sale_of_unapproved_foreign_policy_discount_benefit = False
false_or_incomplete_business_or_financial_report = False
induce_contract_termination_or_payment_by_loan = False
failure_to_confirm_product_suitability = False
improper_commission_payment_to_non_actual_recruiter = False
use_position_to_coerce_or_induce_or_limit_contract_freedom_or_extra_fee = False
other_violations_of_rules_or_laws = False
contract_with_unapproved_insurer = False
other_behavior_damaging_insurance_image = False
failure_to_confirm_suitability = False
induce_contract_termination = False
unauthorized_business_suspension = False
violation_167_2 = False
other_violations = False
unauthorized_delegation = False
contract_without_approval = False
improper_commission_payment = False
unauthorized_use_of_license = False
failure_to_appoint_replacement = False
conceal_important_info = False
misleading_promotion = False
illegal_insurance_payment = False
damage_insurance_image = False
criminal_conviction = False
induce_policy_surrender = False
unauthorized_advertisement = False
coerce_or_induce = False
false_or_incomplete_recruitment_report = False
failure_to_report_to_association = False
improper_fee_collection = False
unauthorized_business_scope = False
disrupt_financial_order = False
false_or_incomplete_report = False
misappropriate_funds = False
employ_unqualified_recruiter = False
sale_of_unapproved_foreign_policy = False
penalty = False
conflict_of_interest = False
misconduct_reported = False
license_not_canceled_in_time = False
improper_document_transfer = False